\ Model MPC
\ LP format - for model browsing. Use MPS format to capture full model detail.
Minimize
 [ 2.17014e-06 y[0,0] ^2 + 2.82449e-07 y[0,1] ^2 + 1.82326e-07 y[0,2] ^2
   + 1.54707e-06 y[0,3] ^2 + 2.17014e-06 y[1,0] ^2 + 2.82449e-07 y[1,1] ^2
   + 1.82326e-07 y[1,2] ^2 + 1.54707e-06 y[1,3] ^2 + 2.17014e-06 y[2,0] ^2
   + 2.82449e-07 y[2,1] ^2 + 1.82326e-07 y[2,2] ^2 + 1.54707e-06 y[2,3] ^2
   + 2.17014e-06 y[3,0] ^2 + 2.82449e-07 y[3,1] ^2 + 1.82326e-07 y[3,2] ^2
   + 1.54707e-06 y[3,3] ^2 + 2.17014e-06 y[4,0] ^2 + 2.82449e-07 y[4,1] ^2
   + 1.82326e-07 y[4,2] ^2 + 1.54707e-06 y[4,3] ^2 + 2.17014e-06 y[5,0] ^2
   + 2.82449e-07 y[5,1] ^2 + 1.82326e-07 y[5,2] ^2 + 1.54707e-06 y[5,3] ^2
   + 2.17014e-06 y[6,0] ^2 + 2.82449e-07 y[6,1] ^2 + 1.82326e-07 y[6,2] ^2
   + 1.54707e-06 y[6,3] ^2 + 2.17014e-06 y[7,0] ^2 + 2.82449e-07 y[7,1] ^2
   + 1.82326e-07 y[7,2] ^2 + 1.54707e-06 y[7,3] ^2 + 2.17014e-06 y[8,0] ^2
   + 2.82449e-07 y[8,1] ^2 + 1.82326e-07 y[8,2] ^2 + 1.54707e-06 y[8,3] ^2
   + 2.17014e-06 y[9,0] ^2 + 2.82449e-07 y[9,1] ^2 + 1.82326e-07 y[9,2] ^2
   + 1.54707e-06 y[9,3] ^2 + 2.17014e-06 y[10,0] ^2
   + 2.82449e-07 y[10,1] ^2 + 1.82326e-07 y[10,2] ^2
   + 1.54707e-06 y[10,3] ^2 + 0.1 z[0,0] ^2 + 0.2 z[0,1] ^2 + 0.5 z[0,2] ^2
   + 0.5 z[0,3] ^2 + 0.1 z[1,0] ^2 + 0.2 z[1,1] ^2 + 0.5 z[1,2] ^2
   + 0.5 z[1,3] ^2 + 0.1 z[2,0] ^2 + 0.2 z[2,1] ^2 + 0.5 z[2,2] ^2
   + 0.5 z[2,3] ^2 + 0.1 z[3,0] ^2 + 0.2 z[3,1] ^2 + 0.5 z[3,2] ^2
   + 0.5 z[3,3] ^2 + 0.1 z[4,0] ^2 + 0.2 z[4,1] ^2 + 0.5 z[4,2] ^2
   + 0.5 z[4,3] ^2 + 0.1 z[5,0] ^2 + 0.2 z[5,1] ^2 + 0.5 z[5,2] ^2
   + 0.5 z[5,3] ^2 + 0.1 z[6,0] ^2 + 0.2 z[6,1] ^2 + 0.5 z[6,2] ^2
   + 0.5 z[6,3] ^2 + 0.1 z[7,0] ^2 + 0.2 z[7,1] ^2 + 0.5 z[7,2] ^2
   + 0.5 z[7,3] ^2 + 0.1 z[8,0] ^2 + 0.2 z[8,1] ^2 + 0.5 z[8,2] ^2
   + 0.5 z[8,3] ^2 + 0.1 z[9,0] ^2 + 0.2 z[9,1] ^2 + 0.5 z[9,2] ^2
   + 0.5 z[9,3] ^2 ] / 2 
Subject To
 R0: x[0,0] = 12
 R1: x[0,1] = 122
 R2: x[0,2] = 172
 R3: x[0,3] = 133
 R4: u[0,0] - u[0,1] = 0
 R5: u[0,3] - u_41 - u_43 = 0
 R6: u[0,2] + u_41 - u_43 = -3
 R7: - u[0,0] - u[0,2] + C - u_41 = 9
 R8: - u_41 + u_43 >= 0
 R9: u[0,0] >= 19
 R10: u[0,0] - u[0,2] >= 0
 R11: u[0,2] >= 27
 R12: u[0,2] - u_41 >= 0
 R13: u[0,3] >= 21
 R14: - x[0,0] + y[0,0] = 0
 R15: - x[0,1] + y[0,1] = 0
 R16: - x[0,2] + y[0,2] = 0
 R17: - x[0,3] + y[0,3] = 0
 R18: z[0,0] = 0
 R19: z[0,1] = 0
 R20: z[0,2] = 0
 R21: z[0,3] = 0
 R22: u[1,0] - u[1,1] = 0
 R23: u[1,3] - u_41 - u_43 = 0
 R24: u[1,2] + u_41 - u_43 = -3
 R25: - u[1,0] - u[1,2] + C - u_41 = 9
 R26: - u_41 + u_43 >= 0
 R27: u[1,0] >= 19
 R28: u[1,0] - u[1,2] >= 0
 R29: u[1,2] >= 27
 R30: u[1,2] - u_41 >= 0
 R31: u[1,3] >= 21
 R32: - x[1,0] + y[1,0] = 0
 R33: - x[1,1] + y[1,1] = 0
 R34: - x[1,2] + y[1,2] = 0
 R35: - x[1,3] + y[1,3] = 0
 R36: u[0,0] - u[1,0] + z[1,0] = 0
 R37: u[0,1] - u[1,1] + z[1,1] = 0
 R38: u[0,2] - u[1,2] + z[1,2] = 0
 R39: u[0,3] - u[1,3] + z[1,3] = 0
 R40: u[2,0] - u[2,1] = 0
 R41: u[2,3] - u_41 - u_43 = 0
 R42: u[2,2] + u_41 - u_43 = -3
 R43: - u[2,0] - u[2,2] + C - u_41 = 9
 R44: - u_41 + u_43 >= 0
 R45: u[2,0] >= 19
 R46: u[2,0] - u[2,2] >= 0
 R47: u[2,2] >= 27
 R48: u[2,2] - u_41 >= 0
 R49: u[2,3] >= 21
 R50: - x[2,0] + y[2,0] = 0
 R51: - x[2,1] + y[2,1] = 0
 R52: - x[2,2] + y[2,2] = 0
 R53: - x[2,3] + y[2,3] = 0
 R54: u[0,0] - u[2,0] + z[2,0] = 0
 R55: u[0,1] - u[2,1] + z[2,1] = 0
 R56: u[0,2] - u[2,2] + z[2,2] = 0
 R57: u[0,3] - u[2,3] + z[2,3] = 0
 R58: u[3,0] - u[3,1] = 0
 R59: u[3,3] - u_41 - u_43 = 0
 R60: u[3,2] + u_41 - u_43 = -3
 R61: - u[3,0] - u[3,2] + C - u_41 = 9
 R62: - u_41 + u_43 >= 0
 R63: u[3,0] >= 19
 R64: u[3,0] - u[3,2] >= 0
 R65: u[3,2] >= 27
 R66: u[3,2] - u_41 >= 0
 R67: u[3,3] >= 21
 R68: - x[3,0] + y[3,0] = 0
 R69: - x[3,1] + y[3,1] = 0
 R70: - x[3,2] + y[3,2] = 0
 R71: - x[3,3] + y[3,3] = 0
 R72: u[0,0] - u[3,0] + z[3,0] = 0
 R73: u[0,1] - u[3,1] + z[3,1] = 0
 R74: u[0,2] - u[3,2] + z[3,2] = 0
 R75: u[0,3] - u[3,3] + z[3,3] = 0
 R76: u[4,0] - u[4,1] = 0
 R77: u[4,3] - u_41 - u_43 = 0
 R78: u[4,2] + u_41 - u_43 = -3
 R79: - u[4,0] - u[4,2] + C - u_41 = 9
 R80: - u_41 + u_43 >= 0
 R81: u[4,0] >= 19
 R82: u[4,0] - u[4,2] >= 0
 R83: u[4,2] >= 27
 R84: u[4,2] - u_41 >= 0
 R85: u[4,3] >= 21
 R86: - x[4,0] + y[4,0] = 0
 R87: - x[4,1] + y[4,1] = 0
 R88: - x[4,2] + y[4,2] = 0
 R89: - x[4,3] + y[4,3] = 0
 R90: u[0,0] - u[4,0] + z[4,0] = 0
 R91: u[0,1] - u[4,1] + z[4,1] = 0
 R92: u[0,2] - u[4,2] + z[4,2] = 0
 R93: u[0,3] - u[4,3] + z[4,3] = 0
 R94: u[5,0] - u[5,1] = 0
 R95: u[5,3] - u_41 - u_43 = 0
 R96: u[5,2] + u_41 - u_43 = -3
 R97: - u[5,0] - u[5,2] + C - u_41 = 9
 R98: - u_41 + u_43 >= 0
 R99: u[5,0] >= 19
 R100: u[5,0] - u[5,2] >= 0
 R101: u[5,2] >= 27
 R102: u[5,2] - u_41 >= 0
 R103: u[5,3] >= 21
 R104: - x[5,0] + y[5,0] = 0
 R105: - x[5,1] + y[5,1] = 0
 R106: - x[5,2] + y[5,2] = 0
 R107: - x[5,3] + y[5,3] = 0
 R108: u[0,0] - u[5,0] + z[5,0] = 0
 R109: u[0,1] - u[5,1] + z[5,1] = 0
 R110: u[0,2] - u[5,2] + z[5,2] = 0
 R111: u[0,3] - u[5,3] + z[5,3] = 0
 R112: u[6,0] - u[6,1] = 0
 R113: u[6,3] - u_41 - u_43 = 0
 R114: u[6,2] + u_41 - u_43 = -3
 R115: - u[6,0] - u[6,2] + C - u_41 = 9
 R116: - u_41 + u_43 >= 0
 R117: u[6,0] >= 19
 R118: u[6,0] - u[6,2] >= 0
 R119: u[6,2] >= 27
 R120: u[6,2] - u_41 >= 0
 R121: u[6,3] >= 21
 R122: - x[6,0] + y[6,0] = 0
 R123: - x[6,1] + y[6,1] = 0
 R124: - x[6,2] + y[6,2] = 0
 R125: - x[6,3] + y[6,3] = 0
 R126: u[0,0] - u[6,0] + z[6,0] = 0
 R127: u[0,1] - u[6,1] + z[6,1] = 0
 R128: u[0,2] - u[6,2] + z[6,2] = 0
 R129: u[0,3] - u[6,3] + z[6,3] = 0
 R130: u[7,0] - u[7,1] = 0
 R131: u[7,3] - u_41 - u_43 = 0
 R132: u[7,2] + u_41 - u_43 = -3
 R133: - u[7,0] - u[7,2] + C - u_41 = 9
 R134: - u_41 + u_43 >= 0
 R135: u[7,0] >= 19
 R136: u[7,0] - u[7,2] >= 0
 R137: u[7,2] >= 27
 R138: u[7,2] - u_41 >= 0
 R139: u[7,3] >= 21
 R140: - x[7,0] + y[7,0] = 0
 R141: - x[7,1] + y[7,1] = 0
 R142: - x[7,2] + y[7,2] = 0
 R143: - x[7,3] + y[7,3] = 0
 R144: u[0,0] - u[7,0] + z[7,0] = 0
 R145: u[0,1] - u[7,1] + z[7,1] = 0
 R146: u[0,2] - u[7,2] + z[7,2] = 0
 R147: u[0,3] - u[7,3] + z[7,3] = 0
 R148: u[8,0] - u[8,1] = 0
 R149: u[8,3] - u_41 - u_43 = 0
 R150: u[8,2] + u_41 - u_43 = -3
 R151: - u[8,0] - u[8,2] + C - u_41 = 9
 R152: - u_41 + u_43 >= 0
 R153: u[8,0] >= 19
 R154: u[8,0] - u[8,2] >= 0
 R155: u[8,2] >= 27
 R156: u[8,2] - u_41 >= 0
 R157: u[8,3] >= 21
 R158: - x[8,0] + y[8,0] = 0
 R159: - x[8,1] + y[8,1] = 0
 R160: - x[8,2] + y[8,2] = 0
 R161: - x[8,3] + y[8,3] = 0
 R162: u[0,0] - u[8,0] + z[8,0] = 0
 R163: u[0,1] - u[8,1] + z[8,1] = 0
 R164: u[0,2] - u[8,2] + z[8,2] = 0
 R165: u[0,3] - u[8,3] + z[8,3] = 0
 R166: u[9,0] - u[9,1] = 0
 R167: u[9,3] - u_41 - u_43 = 0
 R168: u[9,2] + u_41 - u_43 = -3
 R169: - u[9,0] - u[9,2] + C - u_41 = 9
 R170: - u_41 + u_43 >= 0
 R171: u[9,0] >= 19
 R172: u[9,0] - u[9,2] >= 0
 R173: u[9,2] >= 27
 R174: u[9,2] - u_41 >= 0
 R175: u[9,3] >= 21
 R176: - x[9,0] + y[9,0] = 0
 R177: - x[9,1] + y[9,1] = 0
 R178: - x[9,2] + y[9,2] = 0
 R179: - x[9,3] + y[9,3] = 0
 R180: u[0,0] - u[9,0] + z[9,0] = 0
 R181: u[0,1] - u[9,1] + z[9,1] = 0
 R182: u[0,2] - u[9,2] + z[9,2] = 0
 R183: u[0,3] - u[9,3] + z[9,3] = 0
 R184: - x[10,0] + y[10,0] = 0
 R185: - x[10,1] + y[10,1] = 0
 R186: - x[10,2] + y[10,2] = 0
 R187: - x[10,3] + y[10,3] = 0
 qc0: - x[0,0] + x[1,0] + [ 17.52083333333333 u[0,0] * C_dummy ] = 24
 qc1: - x[0,1] + x[1,1] + [ 31.45833333333334 u[0,1] * C_dummy ] = 1
 qc2: - x[0,2] + x[1,2] + [ 42.02083333333334 u[0,2] * C_dummy ] = 0
 qc3: - x[0,3] + x[1,3] + [ 66.66666666666666 u[0,3] * C_dummy ] = 45
 qc4: [ C * C_dummy ] = 1
 qc5: - x[1,0] + x[2,0] + [ 17.52083333333333 u[1,0] * C_dummy ] = 18
 qc6: - x[1,1] + x[2,1] + [ 31.45833333333334 u[1,1] * C_dummy ] = 0
 qc7: - x[1,2] + x[2,2] + [ 42.02083333333334 u[1,2] * C_dummy ] = 0
 qc8: - x[1,3] + x[2,3] + [ 66.66666666666666 u[1,3] * C_dummy ] = 3
 qc9: [ C * C_dummy ] = 1
 qc10: - x[2,0] + x[3,0] + [ 17.52083333333333 u[2,0] * C_dummy ] = 0
 qc11: - x[2,1] + x[3,1] + [ 31.45833333333334 u[2,1] * C_dummy ] = 0
 qc12: - x[2,2] + x[3,2] + [ 42.02083333333334 u[2,2] * C_dummy ] = 0
 qc13: - x[2,3] + x[3,3] + [ 66.66666666666666 u[2,3] * C_dummy ] = 0
 qc14: [ C * C_dummy ] = 1
 qc15: - x[3,0] + x[4,0] + [ 17.52083333333333 u[3,0] * C_dummy ] = 0
 qc16: - x[3,1] + x[4,1] + [ 31.45833333333334 u[3,1] * C_dummy ] = 0
 qc17: - x[3,2] + x[4,2] + [ 42.02083333333334 u[3,2] * C_dummy ] = 0
 qc18: - x[3,3] + x[4,3] + [ 66.66666666666666 u[3,3] * C_dummy ] = 0
 qc19: [ C * C_dummy ] = 1
 qc20: - x[4,0] + x[5,0] + [ 17.52083333333333 u[4,0] * C_dummy ] = 0
 qc21: - x[4,1] + x[5,1] + [ 31.45833333333334 u[4,1] * C_dummy ] = 0
 qc22: - x[4,2] + x[5,2] + [ 42.02083333333334 u[4,2] * C_dummy ] = 0
 qc23: - x[4,3] + x[5,3] + [ 66.66666666666666 u[4,3] * C_dummy ] = 0
 qc24: [ C * C_dummy ] = 1
 qc25: - x[5,0] + x[6,0] + [ 17.52083333333333 u[5,0] * C_dummy ] = 0
 qc26: - x[5,1] + x[6,1] + [ 31.45833333333334 u[5,1] * C_dummy ] = 0
 qc27: - x[5,2] + x[6,2] + [ 42.02083333333334 u[5,2] * C_dummy ] = 0
 qc28: - x[5,3] + x[6,3] + [ 66.66666666666666 u[5,3] * C_dummy ] = 0
 qc29: [ C * C_dummy ] = 1
 qc30: - x[6,0] + x[7,0] + [ 17.52083333333333 u[6,0] * C_dummy ] = 0
 qc31: - x[6,1] + x[7,1] + [ 31.45833333333334 u[6,1] * C_dummy ] = 0
 qc32: - x[6,2] + x[7,2] + [ 42.02083333333334 u[6,2] * C_dummy ] = 0
 qc33: - x[6,3] + x[7,3] + [ 66.66666666666666 u[6,3] * C_dummy ] = 0
 qc34: [ C * C_dummy ] = 1
 qc35: - x[7,0] + x[8,0] + [ 17.52083333333333 u[7,0] * C_dummy ] = 0
 qc36: - x[7,1] + x[8,1] + [ 31.45833333333334 u[7,1] * C_dummy ] = 0
 qc37: - x[7,2] + x[8,2] + [ 42.02083333333334 u[7,2] * C_dummy ] = 0
 qc38: - x[7,3] + x[8,3] + [ 66.66666666666666 u[7,3] * C_dummy ] = 0
 qc39: [ C * C_dummy ] = 1
 qc40: - x[8,0] + x[9,0] + [ 17.52083333333333 u[8,0] * C_dummy ] = 0
 qc41: - x[8,1] + x[9,1] + [ 31.45833333333334 u[8,1] * C_dummy ] = 0
 qc42: - x[8,2] + x[9,2] + [ 42.02083333333334 u[8,2] * C_dummy ] = 0
 qc43: - x[8,3] + x[9,3] + [ 66.66666666666666 u[8,3] * C_dummy ] = 0
 qc44: [ C * C_dummy ] = 1
 qc45: - x[9,0] + x[10,0] + [ 17.52083333333333 u[9,0] * C_dummy ] = 0
 qc46: - x[9,1] + x[10,1] + [ 31.45833333333334 u[9,1] * C_dummy ] = 0
 qc47: - x[9,2] + x[10,2] + [ 42.02083333333334 u[9,2] * C_dummy ] = 0
 qc48: - x[9,3] + x[10,3] + [ 66.66666666666666 u[9,3] * C_dummy ] = 0
 qc49: [ C * C_dummy ] = 1
Bounds
 u[0,0] >= 11
 u[0,1] >= 11
 u[0,2] >= 11
 u[0,3] >= 11
 u[1,0] >= 11
 u[1,1] >= 11
 u[1,2] >= 11
 u[1,3] >= 11
 u[2,0] >= 11
 u[2,1] >= 11
 u[2,2] >= 11
 u[2,3] >= 11
 u[3,0] >= 11
 u[3,1] >= 11
 u[3,2] >= 11
 u[3,3] >= 11
 u[4,0] >= 11
 u[4,1] >= 11
 u[4,2] >= 11
 u[4,3] >= 11
 u[5,0] >= 11
 u[5,1] >= 11
 u[5,2] >= 11
 u[5,3] >= 11
 u[6,0] >= 11
 u[6,1] >= 11
 u[6,2] >= 11
 u[6,3] >= 11
 u[7,0] >= 11
 u[7,1] >= 11
 u[7,2] >= 11
 u[7,3] >= 11
 u[8,0] >= 11
 u[8,1] >= 11
 u[8,2] >= 11
 u[8,3] >= 11
 u[9,0] >= 11
 u[9,1] >= 11
 u[9,2] >= 11
 u[9,3] >= 11
 50 <= C <= 75
 u_41 >= 11
 u_43 >= 11
 y[0,0] free
 y[0,1] free
 y[0,2] free
 y[0,3] free
 y[1,0] free
 y[1,1] free
 y[1,2] free
 y[1,3] free
 y[2,0] free
 y[2,1] free
 y[2,2] free
 y[2,3] free
 y[3,0] free
 y[3,1] free
 y[3,2] free
 y[3,3] free
 y[4,0] free
 y[4,1] free
 y[4,2] free
 y[4,3] free
 y[5,0] free
 y[5,1] free
 y[5,2] free
 y[5,3] free
 y[6,0] free
 y[6,1] free
 y[6,2] free
 y[6,3] free
 y[7,0] free
 y[7,1] free
 y[7,2] free
 y[7,3] free
 y[8,0] free
 y[8,1] free
 y[8,2] free
 y[8,3] free
 y[9,0] free
 y[9,1] free
 y[9,2] free
 y[9,3] free
 y[10,0] free
 y[10,1] free
 y[10,2] free
 y[10,3] free
 z[0,0] free
 z[0,1] free
 z[0,2] free
 z[0,3] free
 z[1,0] free
 z[1,1] free
 z[1,2] free
 z[1,3] free
 z[2,0] free
 z[2,1] free
 z[2,2] free
 z[2,3] free
 z[3,0] free
 z[3,1] free
 z[3,2] free
 z[3,3] free
 z[4,0] free
 z[4,1] free
 z[4,2] free
 z[4,3] free
 z[5,0] free
 z[5,1] free
 z[5,2] free
 z[5,3] free
 z[6,0] free
 z[6,1] free
 z[6,2] free
 z[6,3] free
 z[7,0] free
 z[7,1] free
 z[7,2] free
 z[7,3] free
 z[8,0] free
 z[8,1] free
 z[8,2] free
 z[8,3] free
 z[9,0] free
 z[9,1] free
 z[9,2] free
 z[9,3] free
Generals
 u[0,0] u[0,1] u[0,2] u[0,3] u[1,0] u[1,1] u[1,2] u[1,3] u[2,0] u[2,1]
 u[2,2] u[2,3] u[3,0] u[3,1] u[3,2] u[3,3] u[4,0] u[4,1] u[4,2] u[4,3]
 u[5,0] u[5,1] u[5,2] u[5,3] u[6,0] u[6,1] u[6,2] u[6,3] u[7,0] u[7,1]
 u[7,2] u[7,3] u[8,0] u[8,1] u[8,2] u[8,3] u[9,0] u[9,1] u[9,2] u[9,3] C
 u_41 u_43
End
